language Essence 1.3

letting blksize_delta be
        function(1 --> 8, 2 --> 8, 3 --> 8, 4 --> 8, 5 --> 9, 6 --> 8, 7 --> 8, 8 --> 8, 9 --> 8, 10 --> 8, 11 --> 8,
                 12 --> 8, 13 --> 9, 14 --> 8, 15 --> 8, 16 --> 8, 17 --> 8, 18 --> 8, 19 --> 8)
letting maxcars be
        function(1 --> 9, 2 --> 9, 3 --> 9, 4 --> 9, 5 --> 9, 6 --> 9, 7 --> 9, 8 --> 9, 9 --> 9, 10 --> 9, 11 --> 10,
                 12 --> 9, 13 --> 9, 14 --> 9, 15 --> 9, 16 --> 9, 17 --> 10, 18 --> 9, 19 --> 9)
letting n_cars be 239
letting n_classes be 50
letting n_options be 19
letting quantity be
        function(1 --> 1, 2 --> 1, 3 --> 1, 4 --> 92, 5 --> 1, 6 --> 1, 7 --> 1, 8 --> 1, 9 --> 2, 10 --> 1, 11 --> 1,
                 12 --> 1, 13 --> 1, 14 --> 1, 15 --> 1, 16 --> 1, 17 --> 1, 18 --> 1, 19 --> 1, 20 --> 73, 21 --> 1,
                 22 --> 1, 23 --> 1, 24 --> 1, 25 --> 1, 26 --> 1, 27 --> 1, 28 --> 13, 29 --> 1, 30 --> 1, 31 --> 9,
                 32 --> 1, 33 --> 1, 34 --> 1, 35 --> 1, 36 --> 1, 37 --> 5, 38 --> 2, 39 --> 1, 40 --> 1, 41 --> 1,
                 42 --> 1, 43 --> 1, 44 --> 1, 45 --> 1, 46 --> 1, 47 --> 1, 48 --> 1, 49 --> 1, 50 --> 1)
letting usage be
        relation((1, 2), (1, 3), (1, 7), (1, 8), (2, 9), (2, 14), (3, 14), (4, 7), (4, 9), (4, 13), (5, 1), (5, 16),
                 (5, 17), (6, 11), (6, 14), (6, 15), (7, 4), (7, 5), (7, 12), (7, 17), (8, 7), (8, 16), (9, 19),
                 (10, 19), (11, 1), (11, 4), (11, 8), (11, 14), (12, 18), (13, 2), (13, 4), (13, 7), (13, 12), (13, 17),
                 (13, 18), (14, 2), (14, 17), (15, 2), (15, 17), (16, 11), (17, 4), (18, 7), (19, 12), (20, 3),
                 (21, 10), (22, 2), (22, 5), (22, 12), (22, 13), (23, 11), (24, 8), (24, 13), (25, 7), (25, 12),
                 (26, 19), (27, 15), (27, 18), (28, 11), (28, 13), (28, 18), (29, 17), (30, 14), (31, 15), (32, 2),
                 (32, 5), (32, 19), (33, 3), (33, 9), (34, 3), (34, 15), (35, 7), (35, 9), (35, 18), (36, 4), (36, 6),
                 (36, 12), (37, 1), (37, 4), (38, 1), (38, 4), (39, 2), (39, 7), (39, 15), (40, 5), (40, 7), (41, 19),
                 (42, 1), (43, 19), (44, 1), (44, 4), (44, 16), (45, 3), (45, 16), (46, 1), (46, 5), (46, 12), (47, 9),
                 (47, 13), (47, 14), (48, 6), (48, 15), (48, 19), (49, 1), (49, 8), (49, 17), (50, 4), (50, 15),
                 (50, 19))
$ Visualisation for usage
$  1  2
$  1  3
$  1  7
$  1  8
$  2  9
$  2 14
$  3 14
$  4  7
$  4  9
$  4 13
$  5  1
$  5 16
$  5 17
$  6 11
$  6 14
$  6 15
$  7  4
$  7  5
$  7 12
$  7 17
$  8  7
$  8 16
$  9 19
$ 10 19
$ 11  1
$ 11  4
$ 11  8
$ 11 14
$ 12 18
$ 13  2
$ 13  4
$ 13  7
$ 13 12
$ 13 17
$ 13 18
$ 14  2
$ 14 17
$ 15  2
$ 15 17
$ 16 11
$ 17  4
$ 18  7
$ 19 12
$ 20  3
$ 21 10
$ 22  2
$ 22  5
$ 22 12
$ 22 13
$ 23 11
$ 24  8
$ 24 13
$ 25  7
$ 25 12
$ 26 19
$ 27 15
$ 27 18
$ 28 11
$ 28 13
$ 28 18
$ 29 17
$ 30 14
$ 31 15
$ 32  2
$ 32  5
$ 32 19
$ 33  3
$ 33  9
$ 34  3
$ 34 15
$ 35  7
$ 35  9
$ 35 18
$ 36  4
$ 36  6
$ 36 12
$ 37  1
$ 37  4
$ 38  1
$ 38  4
$ 39  2
$ 39  7
$ 39 15
$ 40  5
$ 40  7
$ 41 19
$ 42  1
$ 43 19
$ 44  1
$ 44  4
$ 44 16
$ 45  3
$ 45 16
$ 46  1
$ 46  5
$ 46 12
$ 47  9
$ 47 13
$ 47 14
$ 48  6
$ 48 15
$ 48 19
$ 49  1
$ 49  8
$ 49 17
$ 50  4
$ 50 15
$ 50 19

